100
12 86
21 19
28 21
4 83
23 17
15 39
5 0
4 23
28 95
24 74
9 5
13 76
21 33
15 8
5 40
26 46
5 79
12 80
23 53
0 67
8 19
11 28
13 63
9 27
21 21
18 15
22 73
6 31
12 5
26 11
27 57
19 24
16 22
5 41
10 72
11 98
6 18
2 62
29 29
22 93
28 43
6 32
3 52
10 22
3 7
25 8
4 91
25 6
7 41
15 93
21 8
6 56
10 69
0 60
25 11
14 52
16 66
28 70
2 99
19 80
20 78
29 24
20 25
8 86
9 29
7 83
11 70
11 16
28 61
22 41
25 34
10 27
19 81
23 70
1 42
12 92
18 91
8 41
19 50
19 38
23 59
29 69
25 64
17 21
14 65
9 2
1 12
13 99
12 30
4 78
2 73
26 96
19 90
20 37
27 69
8 72
21 1
25 9
2 78
23 95
